21, 450
0, 15, 21
1, 25, 17
2, 33, 20
3, 18, 1
4, 29, 19
5, 23, 5
6, 19, 4
7, 20, 7
8, 22, 15
9, 32, 11
10, 24, 10
11, 31, 8
12, 30, 7
13, 16, 17
14, 35, 6
15, 17, 14
16, 34, 16
17, 28, 13
18, 26, 16
19, 27, 5
20, 21, 6